qe/outputs/qe/qe_queries_cbrdelay_obs_redo/T=5,eliminate=[I_0,I_1,I_2,I_3,I_4,L_2,L_3,L_4,C,B,lhs=S_4].smt2
; benchmark generated from python API
(set-info :status unknown)
(declare-fun S_1 () Real)
(declare-fun S_4 () Real)
(declare-fun A_3 () Real)
(declare-fun S_3 () Real)
(declare-fun L_1 () Real)
(declare-fun S_0 () Real)
(declare-fun A_1 () Real)
(declare-fun A_4 () Real)
(declare-fun A_2 () Real)
(declare-fun L_0 () Real)
(declare-fun A_0 () Real)
(declare-fun S_2 () Real)
(assert
 (let (($x34 (>= L_0 0.0)))
 (let ((?x374 (* (- 1.0) A_3)))
 (let ((?x356 (* (- 1.0) S_3)))
 (let ((?x369 (* (- 1.0) A_1)))
 (let (($x51 (= L_1 L_0)))
 (let (($x18819 (not (<= 0.0 (+ L_1 ?x369 S_3 (* (- (/ 1.0 3.0)) S_4) (* (/ 1.0 3.0) S_0))))))
 (let (($x18322 (not (<= 0.0 (+ S_3 A_3 (* (- 1.0) A_2) (* (- 1.0) S_4))))))
 (let (($x1304 (<= (+ (* (- 3.0) S_4) (* 4.0 S_2) (* (- 1.0) S_0)) 0.0)))
 (let (($x19940 (or (<= (+ L_1 (* (- (/ 1.0 2.0)) S_3) ?x374 S_4 (* (/ 1.0 2.0) S_0)) 0.0) (<= (+ A_1 ?x356 ?x374 S_4) 0.0))))
 (let (($x13567 (<= (+ L_1 ?x369 (* (- 2.0) S_3) ?x374 A_2 S_4 (* 2.0 S_1)) 0.0)))
 (let (($x19016 (not (<= 0.0 (+ L_1 ?x369 S_3 (* (- (/ 1.0 2.0)) S_4) (* (/ 1.0 2.0) S_1))))))
 (let ((?x343 (* (- 1.0) S_1)))
 (let ((?x1295 (* (- 2.0) S_4)))
 (let ((?x3089 (* (- 2.0) A_2)))
 (let ((?x2699 (* 2.0 A_3)))
 (let ((?x1900 (* 2.0 A_1)))
 (let ((?x1924 (* (- 2.0) L_1)))
 (let (($x1095 (<= (+ ?x1295 (* 3.0 S_2) ?x343) 0.0)))
 (let (($x1002 (<= (+ (* (- 1.0) L_1) A_3 (* (- 1.0) S_4)) 0.0)))
 (let (($x27518 (or $x51 (<= (+ L_1 ?x369 ?x356 (* (- 1.0) A_4) A_2 S_4 S_1) 0.0))))
 (let (($x27847 (or $x1002 (<= (+ (* (- (/ 1.0 2.0)) L_1) (* (/ 1.0 2.0) A_1) (* (- (/ 1.0 2.0)) S_4)) (- 5.0)) (<= (+ (* (- 1.0) S_4) S_0) (- 15.0)))))
 (let (($x13217 (<= (+ A_3 (* (- 1.0) A_2) (* (- 1.0) S_4) S_2) (- 5.0))))
 (let ((?x363 (* (- 1.0) S_4)))
 (let ((?x1037 (* (- 1.0) A_0)))
 (let ((?x371 (* (- 1.0) A_2)))
 (let ((?x244 (* (- 1.0) L_1)))
 (let (($x3536 (<= (+ ?x1037 (* (- (/ 1.0 2.0)) S_4) (* (/ 3.0 2.0) S_1) L_0) 0.0)))
 (let (($x27455 (or $x1002 $x3536 (<= (+ ?x244 A_1 A_3 ?x371 ?x1037 ?x363 S_1 L_0) 0.0))))
 (let (($x3537 (<= (+ ?x363 (* 2.0 S_1) (* (- 1.0) S_0)) 0.0)))
 (let (($x19488 (or $x1002 $x3537 (<= (+ A_3 ?x371 ?x363 (* (/ 3.0 2.0) S_1) (* (- (/ 1.0 2.0)) S_0)) (- 5.0)))))
 (let (($x27660 (or $x1002 $x3537 (<= (+ ?x1924 ?x1900 ?x2699 ?x3089 ?x1295 S_1 (* (- 1.0) S_0)) 0.0))))
 (let ((?x1103 (* (- 1.0) S_0)))
 (let ((?x1301 (* (- 3.0) S_4)))
 (let ((?x8984 (* (- 3.0) A_2)))
 (let ((?x4098 (* 3.0 A_3)))
 (let ((?x1943 (* 3.0 A_1)))
 (let ((?x1942 (* (- 3.0) L_1)))
 (let (($x19429 (or $x51 $x1002 $x13217 (<= (+ L_1 ?x369 ?x363 (* 2.0 S_2)) (- 5.0)))))
 (let ((?x998 (* (/ 1.0 2.0) S_0)))
 (let ((?x377 (* (- 1.0) A_4)))
 (let ((?x997 (* (- (/ 1.0 2.0)) S_3)))
 (let (($x1894 (<= (+ ?x244 A_1 (* (- 1.0) S_2)) 0.0)))
 (let (($x14227 (or (<= (+ ?x1924 ?x1900 (* (- 3.0) S_3) S_4) 0.0) (<= (+ ?x356 (* (/ 1.0 2.0) S_4) ?x998) 0.0))))
 (let ((?x2160 (* (/ 1.0 2.0) S_4)))
 (let ((?x3621 (* (/ 1.0 2.0) A_2)))
 (let ((?x2101 (* (- (/ 1.0 2.0)) A_3)))
 (let ((?x2219 (* (- (/ 3.0 2.0)) A_1)))
 (let ((?x2217 (* (/ 3.0 2.0) L_1)))
 (let (($x2257 (<= (+ (* (/ 1.0 2.0) L_1) (* (- (/ 1.0 2.0)) A_1) (* (- (/ 1.0 2.0)) S_4) S_2) 0.0)))
 (let (($x11140 (<= (+ ?x1924 ?x1900 ?x2699 ?x3089 ?x1037 ?x1295 S_2 L_0) 0.0)))
 (let (($x1319 (<= (+ ?x1037 ?x1295 (* 3.0 S_2) L_0) 0.0)))
 (let (($x2251 (<= (+ (* (- (/ 3.0 2.0)) L_1) (* (/ 3.0 2.0) A_1) ?x1037 (* (- (/ 1.0 2.0)) S_4) L_0) 0.0)))
 (let (($x18307 (or $x1002 $x2251 $x11140 (not (<= 0.0 (+ L_1 ?x369 ?x363 (* 2.0 S_2)))))))
 (let (($x27311 (or $x1002 $x3536 (<= (+ A_3 ?x371 ?x1037 ?x363 (* 2.0 S_1) L_0) (- 5.0)))))
 (let (($x18726 (<= (+ (* 2.0 L_1) (* (- 2.0) A_1) ?x377 A_2 S_4 S_0) (- 5.0))))
 (let (($x27533 (or $x51 (<= (+ L_1 ?x369 ?x377 A_2 S_4 (* (- 1.0) S_2) S_0) 0.0))))
 (let ((?x349 (* (- 1.0) S_2)))
 (let ((?x2100 (* (- (/ 1.0 2.0)) A_1)))
 (let ((?x2292 (* (/ 1.0 2.0) L_1)))
 (let (($x7424 (<= (+ ?x2292 ?x2100 (* (- (/ 1.0 2.0)) A_4) (* (/ 1.0 2.0) A_3) ?x2160 ?x349 S_0) 0.0)))
 (let (($x18590 (or $x51 (<= (+ L_1 ?x369 (* (/ 1.0 4.0) S_4) (* (/ 3.0 4.0) S_0)) (- 5.0)))))
 (let (($x18416 (or $x51 (not (<= (- 5.0) (+ (* 2.0 L_1) (* (- 2.0) A_1) S_3 S_0))))))
 (let (($x18577 (<= (+ ?x2217 ?x2219 (* (- (/ 1.0 2.0)) A_4) (* (/ 1.0 2.0) A_3) ?x2160 S_0) (- 5.0))))
 (let (($x6403 (<= (+ L_1 ?x369 (* (- 2.0) S_3) ?x377 A_3 S_4 (* 2.0 S_1)) 0.0)))
 (let (($x114 (>= S_3 S_2)))
 (let (($x119 (>= A_1 A_0)))
 (let (($x108 (>= S_1 S_0)))
 (let (($x111 (>= S_2 S_1)))
 (let (($x117 (>= S_4 S_3)))
 (let (($x121 (>= A_3 A_2)))
 (let (($x122 (>= A_4 A_3)))
 (and (<= (+ A_1 ?x244) S_3) $x122 $x121 $x117 $x111 $x108 $x119 $x114 (or (not (<= 0.0 (+ ?x244 L_0))) $x51) (or (<= (- 5.0) (+ L_1 ?x369 S_0)) (<= (+ ?x349 S_0) (- 5.0))) (or $x51 (<= (+ L_1 ?x369 S_0) (- 10.0))) (or (<= (+ ?x997 ?x998) (- 5.0)) (<= 5.0 (+ L_1 ?x369 S_3))) (or (<= (+ ?x363 S_2) (- 5.0)) $x1002) (or $x51 (<= (+ L_1 ?x369 S_1) (- 5.0))) (<= (+ ?x356 ?x1037 (* 2.0 S_1) L_0) 0.0) (or $x51 $x6403) (or $x1894 (<= (+ S_3 (* (- 3.0) S_2) (* 2.0 S_0)) 0.0)) (or $x1894 (<= (+ (* (/ 1.0 4.0) S_4) ?x349 (* (/ 3.0 4.0) S_0)) 0.0)) (or $x51 (<= (+ L_1 ?x369 (* (/ 1.0 2.0) S_2) ?x998) (- 5.0))) (or $x51 $x18577) $x18416 $x18590 (or $x51 (not (<= 0.0 (+ L_1 ?x369 S_3 ?x349 S_0)))) (or $x51 $x7424) (or $x51 (<= (+ L_1 ?x369 ?x356 ?x377 A_3 S_4 S_0) 0.0)) (or $x51 (<= (+ ?x2292 ?x2100 ?x2101 ?x3621 ?x2160 ?x349 S_0) 0.0)) (or (not (<= (- 5.0) (+ L_1 ?x369 S_0))) $x1894) $x27533 (or $x3536 $x18322) (or $x51 $x18726) $x27311 (or $x1002 $x1319 $x13217) (or $x1319 $x18322) $x18307 (or $x1002 $x1319 $x11140) (or $x1002 $x2257 $x13217) (or $x2257 $x18322) (or $x51 (<= (+ ?x2217 ?x2219 ?x2101 ?x3621 ?x2160 S_0) (- 5.0))) $x14227 (or $x1002 (<= (+ (* (- (/ 1.0 2.0)) S_4) (* (/ 1.0 2.0) S_1)) (- 5.0))) (or $x1894 (<= (+ L_1 ?x374 S_4 ?x349 S_0) 0.0)) (or $x51 (<= (+ L_1 ?x369 ?x997 ?x377 A_2 S_4 ?x998) 0.0)) $x19429 (or $x1002 $x1304 (<= (+ ?x1942 ?x1943 ?x4098 ?x8984 ?x1301 S_2 ?x1103) 0.0)) $x27660 $x19488 (or $x3537 $x18322) (or $x1095 $x18322) (or $x51 $x18322 (not (<= 0.0 (+ L_1 ?x369 S_3 ?x363 S_2)))) (or $x1002 $x1304 $x13217) $x27455 (or $x1002 $x1095 $x13217) $x27847 $x27518 (or $x1002 $x1095 (<= (+ ?x1924 ?x1900 ?x2699 ?x3089 ?x1295 S_2 ?x343) 0.0)) (or $x51 $x18322 $x19016) (or $x51 $x13567) $x19940 (or $x1304 $x18322) (or $x51 $x18322 $x18819) (or $x51 (<= (+ (* 2.0 L_1) ?x369 ?x374 S_4 S_0) (- 5.0))) (or $x51 (<= (+ L_1 ?x369 ?x356 ?x374 A_2 S_4 S_0) 0.0)) $x34 (<= (+ ?x1037 S_0 L_0) 0.0) (not (>= (+ L_1 S_3 ?x371) 0.0)) (<= (+ L_1 ?x377 S_4) 0.0) (<= (+ ?x356 S_1) (- 5.0)) (<= (+ (* (- 3.0) S_3) S_4 (* 2.0 S_1)) 0.0) (<= (+ L_1 ?x369 S_1) 0.0) (<= (+ (* (- 2.0) S_3) (* 3.0 S_1) ?x1103) 0.0) (<= (+ L_1 ?x356 ?x374 S_4 S_1) 0.0))))))))))))))))))))))))))))))))))))))))))))))))))))))))))))))))))))))))))
(check-sat)
